1638342000
1638370800
1638428400
1638457200
1638514800
1638543600
1638774000
1638802800
1638802800
1638810000
1638860400
1638889200
1638946800
1638975600
1639033200
1639062000
1639119600
1639148400
1639292400
1639321200
1639551600
1639580400
1639638000
1639666800
1639724400
1639753200
1639983600
1640012400
1640070000
1640098800
1640156400
1640185200
1640242800
1640271600
